/* graph-color-gen.dat */

param N := 5;

/* AM{V, V}の添字 (ノードの組) と値 (リンクの有無) の対応を以下に示す */
param AM :=
1 1 0   /* 彩色グラフでリンクが存在していれば1，存在していなければ0 */
1 2 1
1 3 1
1 4 0
1 5 0
2 1 1
2 2 0
2 3 1
2 4 0
2 5 1
3 1 1
3 2 1
3 3 0
3 4 1
3 5 1
4 1 0
4 2 0
4 3 1
4 4 0
4 5 1
5 1 0
5 2 1
5 3 1
5 4 1
5 5 0
;
end;
